SDVRP instances/p01/p01_1090_tsplib0_split0.vrp
NAME:.\SDVRP_split
BEST_KNOWN: 0
COMMENT: 0
DIMENSION: 269
CAPACITY: 160
EDGE_WEIGHT_FORMAT: FUNCTION
EDGE_WEIGHT_TYPE: EXACT_2D
NODE_COORD_SECTION
1 0.00000 0.00000
2 7 12
3 7 12
4 7 12
5 7 12
6 7 12
7 7 12
8 7 12
9 7 12
10 19 9
11 19 9
12 19 9
13 22 24
14 22 24
15 22 24
16 22 24
17 22 24
18 -10 -14
19 -10 -14
20 -10 -14
21 -10 -14
22 -10 -14
23 -10 -14
24 -10 -14
25 10 -10
26 10 -10
27 10 -10
28 10 -10
29 10 -10
30 10 -10
31 -9 7
32 -9 7
33 -9 7
34 -9 7
35 -9 7
36 -9 7
37 -9 7
38 -9 7
39 -13 23
40 -13 23
41 -13 23
42 -13 23
43 -13 23
44 -13 23
45 -13 23
46 1 22
47 1 22
48 1 22
49 1 22
50 1 22
51 22 -7
52 22 -7
53 22 -7
54 21 -19
55 21 -19
56 21 -19
57 12 1
58 12 1
59 12 1
60 12 1
61 12 1
62 12 1
63 12 1
64 12 1
65 1 -8
66 1 -8
67 1 -8
68 1 -8
69 -25 -15
70 -25 -15
71 -25 -15
72 -25 -15
73 -25 -15
74 -18 2
75 -18 2
76 -18 2
77 -18 2
78 6 -24
79 6 -24
80 6 -24
81 6 -24
82 6 -24
83 22 1
84 22 1
85 22 1
86 22 1
87 22 1
88 -3 -17
89 -3 -17
90 -3 -17
91 -3 -17
92 -13 -7
93 -13 -7
94 -13 -7
95 -13 -7
96 -17 -27
97 -17 -27
98 -17 -27
99 -17 -27
100 -17 -27
101 -17 -27
102 -17 -27
103 -17 -27
104 27 18
105 27 18
106 27 18
107 27 18
108 27 18
109 27 18
110 32 2
111 32 2
112 32 2
113 32 2
114 32 2
115 12 17
116 12 17
117 12 17
118 -14 17
119 -14 17
120 -14 17
121 -14 17
122 -14 17
123 -22 12
124 -22 12
125 -22 12
126 -22 12
127 -22 12
128 -23 -2
129 -23 -2
130 -23 -2
131 -23 -2
132 -23 -2
133 -23 -2
134 -23 -2
135 -3 28
136 -3 28
137 -3 28
138 -3 28
139 -3 28
140 -3 28
141 -3 28
142 0 8
143 0 8
144 0 8
145 13 27
146 13 27
147 13 27
148 13 27
149 13 27
150 13 27
151 28 8
152 28 8
153 28 8
154 28 -13
155 28 -13
156 28 -13
157 28 -13
158 28 -13
159 7 29
160 7 29
161 7 29
162 7 29
163 7 29
164 7 29
165 7 29
166 8 6
167 8 6
168 8 6
169 8 6
170 8 6
171 8 6
172 8 6
173 16 -30
174 16 -30
175 16 -30
176 16 -30
177 16 -30
178 16 -30
179 31 -7
180 31 -7
181 31 -7
182 31 -7
183 32 23
184 32 23
185 32 23
186 32 23
187 32 23
188 32 23
189 32 23
190 33 29
191 33 29
192 33 29
193 33 29
194 33 29
195 33 29
196 2 -18
197 2 -18
198 2 -18
199 2 -18
200 2 -18
201 2 -18
202 15 -5
203 15 -5
204 15 -5
205 15 -5
206 15 -5
207 15 -5
208 29 -25
209 29 -25
210 29 -25
211 29 -25
212 29 -25
213 29 -25
214 -25 -34
215 -25 -34
216 -25 -34
217 -25 -34
218 -25 -34
219 -25 -34
220 -20 -23
221 -20 -23
222 -9 -30
223 -9 -30
224 -25 24
225 -25 24
226 -25 24
227 -25 24
228 0 -25
229 0 -25
230 0 -25
231 0 -25
232 0 -25
233 0 -25
234 9 -30
235 9 -30
236 9 -30
237 9 -30
238 2 -1
239 2 -1
240 2 -1
241 2 -1
242 -5 -8
243 -5 -8
244 -5 -8
245 -5 -8
246 -5 -8
247 -5 -8
248 -5 -8
249 -5 15
250 -5 15
251 -5 15
252 -5 15
253 -5 15
254 -5 15
255 18 -12
256 18 -12
257 18 -12
258 18 -12
259 18 -12
260 18 -12
261 18 -12
262 26 -3
263 26 -3
264 26 -3
265 26 -3
266 26 -3
267 26 -3
268 26 -3
269 26 -3
DEMAND_SECTION
1 0
2 32
3 32
4 32
5 16
6 8
7 2
8 2
9 1
10 32
11 32
12 2
13 32
14 8
15 2
16 2
17 1
18 32
19 32
20 16
21 2
22 2
23 2
24 1
25 32
26 32
27 32
28 32
29 2
30 2
31 32
32 32
33 32
34 16
35 8
36 2
37 2
38 2
39 32
40 32
41 8
42 2
43 2
44 2
45 1
46 16
47 8
48 2
49 2
50 2
51 32
52 8
53 2
54 16
55 2
56 2
57 32
58 32
59 32
60 16
61 2
62 2
63 2
64 1
65 32
66 32
67 2
68 1
69 32
70 32
71 8
72 2
73 1
74 32
75 32
76 16
77 2
78 32
79 32
80 32
81 8
82 1
83 32
84 16
85 2
86 2
87 2
88 16
89 8
90 2
91 1
92 32
93 32
94 16
95 1
96 32
97 32
98 32
99 16
100 8
101 2
102 2
103 1
104 32
105 32
106 16
107 2
108 2
109 1
110 16
111 8
112 2
113 2
114 1
115 32
116 32
117 32
118 32
119 32
120 32
121 2
122 1
123 32
124 32
125 16
126 8
127 2
128 32
129 32
130 32
131 16
132 2
133 2
134 1
135 32
136 32
137 32
138 8
139 2
140 2
141 1
142 16
143 2
144 2
145 32
146 32
147 32
148 16
149 2
150 1
151 32
152 2
153 1
154 16
155 8
156 2
157 2
158 1
159 32
160 32
161 32
162 16
163 8
164 2
165 2
166 32
167 32
168 32
169 16
170 2
171 2
172 2
173 32
174 32
175 32
176 16
177 8
178 2
179 32
180 8
181 2
182 1
183 32
184 32
185 32
186 16
187 8
188 2
189 2
190 32
191 32
192 8
193 2
194 2
195 1
196 32
197 32
198 32
199 16
200 2
201 1
202 32
203 32
204 8
205 2
206 2
207 1
208 32
209 32
210 8
211 2
212 2
213 2
214 32
215 32
216 32
217 16
218 8
219 2
220 32
221 8
222 16
223 8
224 32
225 32
226 32
227 1
228 32
229 32
230 32
231 2
232 2
233 1
234 32
235 32
236 32
237 32
238 32
239 16
240 2
241 2
242 32
243 32
244 8
245 2
246 2
247 2
248 1
249 32
250 32
251 2
252 2
253 2
254 1
255 32
256 32
257 32
258 16
259 8
260 2
261 2
262 32
263 32
264 16
265 8
266 2
267 2
268 2
269 1
DEPOT_SECTION
1
-1
EOF