SDVRP instances/p01/p01_1090_tsplib0_split0.sol
268 -3 8 5 2 7 1 6 4 -9 10 114 116 115 -11 108 107 106 105 104 103 183 184 188 187 -13 15 14 16 12 147 144 148 146 145 149 -21 19 18 17 20 69 68 71 70 72 -23 22 214 216 215 218 213 217 95 101 102 -27 26 24 25 65 -28 29 177 174 173 172 176 175 81 77 -35 33 31 30 32 34 36 37 -55 54 53 212 208 210 209 207 211 156 155 154 153 157 202 -61 56 59 62 63 60 57 58 238 -67 66 64 196 195 197 87 88 89 90 -75 74 225 223 226 224 -76 73 128 130 131 132 133 129 127 -78 236 234 233 235 -80 79 229 227 228 231 230 232 200 198 199 -84 85 86 83 82 262 263 268 261 264 267 266 265 -92 94 91 93 247 246 241 243 245 244 242 -119 38 39 42 43 44 40 41 249 252 253 251 250 -120 121 118 117 123 122 126 124 125 -141 138 139 140 136 137 135 134 248 -143 142 49 47 46 48 45 164 163 158 162 161 160 159 -150 151 152 109 112 110 111 113 180 179 181 178 50 52 51 203 206 205 -171 166 167 168 165 169 170 237 239 240 -182 185 186 192 194 193 190 189 191 -201 204 256 257 254 259 258 255 260 -220 219 100 97 96 99 98 222 221 0 





OBJ=
1517.306
BEST_KNOWN=
0.000